(set-logic QF_NRA)
(declare-fun _substvar_47_ () Bool)
(declare-fun v0 () Bool)
(declare-fun v4 () Bool)
(declare-fun r1 () Real)
(declare-fun r8 () Real)
(assert (or (or v0 v4) _substvar_47_              ))
(assert (or (=           (/ r1 r8)                  r1                0.91) _substvar_47_(=(/ 0.4r1)r1                    )))
(check-sat)
